Warehouses = 3;
Stores = 7;

Capacity = [40, 60, 70];
FixedCost = [510, 550, 710];
Goods = [16, 17, 7, 16, 6, 12, 5];
SupplyCost = [|68, 34, 97
              |85, 68, 34
              |54, 40, 27
              |53, 18, 54
              |21, 26, 48
              |85, 52, 60
              |42, 43, 23|];
